
720.0
840.0
900.0
630.0
810.0
630.0
720.0
630.0
630.0
930.0
630.0
630.0
630.0
810.0
720.0
630.0
630.0
630.0
810.0
630.0
630.0
840.0
630.0
660.0
960.0
780.0
870.0
780.0
630.0
630.0
780.0
630.0
900.0
840.0
630.0
630.0
1050.0
630.0
630.0
990.0
630.0
630.0
780.0
630.0
780.0
630.0
960.0
630.0
630.0
630.0